
--- Job MicrogridDespacho3NODR.gms Start 09/05/19 16:03:02 28.2.0 r750fa45 WEX-WEI x86 64bit/MS Windows
--- GAMS Parameters defined
    Input C:\Users\carlosa-correaf\Google Drive\DR\DRuRed\MicrogridDespacho3NODR.gms
    PageWidth 80
    PageSize 0
    PageContr 3
    Action CE
    ScrDir C:\Users\carlosa-correaf\Documents\gamsdir\projdir\225a\
    SysDir C:\GAMS\win64\28.2\
    WorkDir C:\Users\carlosa-correaf\Documents\gamsdir\projdir\
    LogOption 3
    DFormat 0
    TFormat 0
    ErrorLog 99
    IDE 1
GAMS 28.2.0   Copyright (C) 1987-2019 GAMS Development. All rights reserved
Licensee: GAMS Development Corporation, USA              G871201/0000CA-ANY
          Free Demo, +1 202-342-0180, support@gams.com, www.gams.com DC0000
--- Starting compilation
--- MicrogridDespacho3NODR.gms(16) 3 Mb
--- . tabladatosURED.csv(3) 3 Mb
--- MicrogridDespacho3NODR.gms(26) 3 Mb
--- . DemandayPV24DRGEO.csv(25) 3 Mb
--- MicrogridDespacho3NODR.gms(88) 3 Mb
--- Starting execution: elapsed 0:00:00.019
--- MicrogridDespacho3NODR.gms(91) 4 Mb
--- Generating LP model DespachoMicroRed
--- MicrogridDespacho3NODR.gms(108) 4 Mb
---   50 rows  217 columns  503 non-zeroes
--- Executing CPLEX: elapsed 0:00:00.130

IBM ILOG CPLEX   28.2.0 r750fa45 Released Aug 19, 2019 WEI x86 64bit/MS Window
Cplex 12.9.0.0

Reading data...
Starting Cplex...
Space for names approximately 0.00 Mb
Use option 'names no' to turn use of names off
CPXPARAM_Advance                                 0
CPXPARAM_Threads                                 1
CPXPARAM_Parallel                                1
CPXPARAM_Simplex_Limits_Iterations               2000000000
CPXPARAM_TimeLimit                               1000
CPXPARAM_Tune_TimeLimit                          200
Tried aggregator 1 time.
LP Presolve eliminated 11 rows and 126 columns.
Aggregator did 1 substitutions.
Reduced LP has 38 rows, 90 columns, and 143 nonzeros.
Presolve time = 0.00 sec. (0.13 ticks)
Initializing dual steep norms . . .

Iteration log . . .
Iteration:     1   Dual objective     =         70982.894381
LP status(1): optimal
Cplex Time: 0.02sec (det. 0.23 ticks)

Optimal solution found.
Objective :      109444.428195

--- Restarting execution
--- MicrogridDespacho3NODR.gms(108) 2 Mb
--- Reading solution for model DespachoMicroRed
--- Executing after solve: elapsed 0:00:01.255
--- MicrogridDespacho3NODR.gms(110) 3 Mb
--- GDX File C:\Users\carlosa-correaf\Documents\gamsdir\projdir\results.gdx
--- MicrogridDespacho3NODR.gms(111) 3 Mb

GDXXRW           28.2.0 r750fa45 Released Aug 19, 2019 VS8 x86 32bit/MS Window
Input file : C:\Users\carlosa-correaf\Documents\gamsdir\projdir\results.gdx
Output file: C:\Users\carlosa-correaf\Documents\gamsdir\projdir\results.xlsx
Total time = 1453 Ms
*** Status: Normal completion
--- Job MicrogridDespacho3NODR.gms Stop 09/05/19 16:03:06 elapsed 0:00:04.590
